WARNING: for repeatability, setting FPU to use double precision
============================[ Problem Statistics ]=============================
|                                                                             |
|  Number of variables:            50                                         |
|  Number of clauses:             218                                         |
|  Parse time:                   0.00 s                                       |
|                                                                             |
============================[ Search Statistics ]==============================
| Conflicts |          ORIGINAL         |          LEARNT          | Progress |
|           |    Vars  Clauses Literals |    Limit  Clauses Lit/Cl |          |
===============================================================================
===============================================================================
restarts              : 1
conflicts             : 23             (16370 /sec)
decisions             : 38             (0.00 % random) (27046 /sec)
propagations          : 400            (284698 /sec)
conflict literals     : 88             (21.43 % deleted)
Memory used           : 20.00 MB
CPU time              : 0.001405 s

SATISFIABLE
